nbGenes = 10;
preference = [[0 2 50 6 17 63 21 40 2 60 ]
[98 0 57 76 95 78 70 91 24 64 ]
[50 43 0 26 45 66 91 72 35 24 ]
[94 24 74 0 93 38 39 11 92 60 ]
[83 5 55 7 0 77 64 55 64 65 ]
[37 22 34 62 23 0 86 32 62 95 ]
[79 30 9 61 36 14 0 6 45 53 ]
[60 9 28 89 45 68 94 0 9 65 ]
[98 76 65 8 36 38 55 91 0 32 ]
[40 36 76 40 35 5 47 35 68 0 ]
];
